solution status: optimal solution found
objective value:                     161173.814070694
d11(0,0)                                            1 	(obj:0)
d11(1,1)                                            1 	(obj:0)
d11(2,4)                                            1 	(obj:0)
d11(2,5)                                            1 	(obj:0)
d11(2,7)                                            1 	(obj:0)
d11(2,8)                                            1 	(obj:0)
d11(2,10)                                           1 	(obj:0)
d11(2,11)                                           1 	(obj:0)
d11(2,12)                                           1 	(obj:0)
d11(3,13)                                           1 	(obj:0)
d11(3,14)                                           1 	(obj:0)
d11(3,15)                                           1 	(obj:0)
d11(3,16)                                           1 	(obj:0)
d11(3,17)                                           1 	(obj:0)
d11(3,18)                                           1 	(obj:0)
d11(3,19)                                           1 	(obj:0)
d11(3,20)                                           1 	(obj:0)
d11(3,21)                                           1 	(obj:0)
d11(3,22)                                           1 	(obj:0)
d11(3,23)                                           1 	(obj:0)
d11(3,24)                                           1 	(obj:0)
d11(3,25)                                           1 	(obj:0)
d11(3,26)                                           1 	(obj:0)
d11(3,28)                                           1 	(obj:0)
d11(3,29)                                           1 	(obj:0)
d11(3,31)                                           1 	(obj:0)
d11(3,32)                                           1 	(obj:0)
d11(3,33)                                           1 	(obj:0)
d11(3,34)                                           1 	(obj:0)
d11(3,35)                                           1 	(obj:0)
d11(3,36)                                           1 	(obj:0)
d11(3,37)                                           1 	(obj:0)
d11(3,38)                                           1 	(obj:0)
d11(3,39)                                           1 	(obj:0)
d11(4,40)                                           1 	(obj:0)
d11(4,41)                                           1 	(obj:0)
d11(4,42)                                           1 	(obj:0)
d11(4,43)                                           1 	(obj:0)
d11(4,44)                                           1 	(obj:0)
d11(4,45)                                           1 	(obj:0)
d11(4,46)                                           1 	(obj:0)
d11(4,47)                                           1 	(obj:0)
d11(4,48)                                           1 	(obj:0)
d11(4,49)                                           1 	(obj:0)
d11(4,50)                                           1 	(obj:0)
d11(4,51)                                           1 	(obj:0)
d11(4,52)                                           1 	(obj:0)
d11(4,53)                                           1 	(obj:0)
d11(4,54)                                           1 	(obj:0)
d11(4,55)                                           1 	(obj:0)
d11(4,56)                                           1 	(obj:0)
d11(4,57)                                           1 	(obj:0)
d11(4,58)                                           1 	(obj:0)
d11(4,59)                                           1 	(obj:0)
d11(4,60)                                           1 	(obj:0)
d11(4,61)                                           1 	(obj:0)
d11(4,62)                                           1 	(obj:0)
d11(4,63)                                           1 	(obj:0)
d11(4,64)                                           1 	(obj:0)
d11(4,65)                                           1 	(obj:0)
d11(4,66)                                           1 	(obj:0)
d11(4,67)                                           1 	(obj:0)
d11(4,68)                                           1 	(obj:0)
d11(4,69)                                           1 	(obj:0)
d11(4,70)                                           1 	(obj:0)
d11(4,71)                                           1 	(obj:0)
d11(4,72)                                           1 	(obj:0)
d11(4,73)                                           1 	(obj:0)
d11(4,74)                                           1 	(obj:0)
d11(4,75)                                           1 	(obj:0)
d11(4,76)                                           1 	(obj:0)
d11(4,77)                                           1 	(obj:0)
d11(4,78)                                           1 	(obj:0)
d11(4,79)                                           1 	(obj:0)
d11(4,80)                                           1 	(obj:0)
d11(4,81)                                           1 	(obj:0)
d11(4,82)                                           1 	(obj:0)
d11(4,83)                                           1 	(obj:0)
d11(4,84)                                           1 	(obj:0)
d11(4,85)                                           1 	(obj:0)
d11(4,86)                                           1 	(obj:0)
d11(4,87)                                           1 	(obj:0)
d11(4,88)                                           1 	(obj:0)
d11(4,89)                                           1 	(obj:0)
d11(4,90)                                           1 	(obj:0)
d11(4,91)                                           1 	(obj:0)
d11(4,92)                                           1 	(obj:0)
d11(4,93)                                           1 	(obj:0)
d11(4,94)                                           1 	(obj:0)
d11(4,95)                                           1 	(obj:0)
d11(4,96)                                           1 	(obj:0)
d11(4,97)                                           1 	(obj:0)
d11(4,98)                                           1 	(obj:0)
d11(4,99)                                           1 	(obj:0)
d11(4,100)                                          1 	(obj:0)
d11(4,101)                                          1 	(obj:0)
d11(4,102)                                          1 	(obj:0)
d11(4,103)                                          1 	(obj:0)
d11(4,104)                                          1 	(obj:0)
d11(4,105)                                          1 	(obj:0)
d11(4,106)                                          1 	(obj:0)
d11(4,107)                                          1 	(obj:0)
d11(4,108)                                          1 	(obj:0)
d11(4,109)                                          1 	(obj:0)
d11(4,110)                                          1 	(obj:0)
d11(4,111)                                          1 	(obj:0)
d11(4,112)                                          1 	(obj:0)
d11(4,113)                                          1 	(obj:0)
d11(4,114)                                          1 	(obj:0)
d11(4,115)                                          1 	(obj:0)
d11(4,116)                                          1 	(obj:0)
d11(4,117)                                          1 	(obj:0)
d11(4,118)                                          1 	(obj:0)
d11(4,119)                                          1 	(obj:0)
d11(4,120)                                          1 	(obj:0)
d12(1,2)                                            1 	(obj:0)
d12(1,3)                                            1 	(obj:0)
d21(3,13)                                           1 	(obj:0)
d21(4,40)                                           1 	(obj:0)
d21(4,41)                                           1 	(obj:0)
d21(4,42)                                           1 	(obj:0)
d21(4,43)                                           1 	(obj:0)
d21(4,44)                                           1 	(obj:0)
d21(4,45)                                           1 	(obj:0)
d21(4,46)                                           1 	(obj:0)
d21(4,47)                                           1 	(obj:0)
d21(4,49)                                           1 	(obj:0)
d21(4,50)                                           1 	(obj:0)
d21(4,51)                                           1 	(obj:0)
d21(4,52)                                           1 	(obj:0)
d21(4,53)                                           1 	(obj:0)
d21(4,55)                                           1 	(obj:0)
d21(4,58)                                           1 	(obj:0)
d21(4,59)                                           1 	(obj:0)
d21(4,61)                                           1 	(obj:0)
d21(4,67)                                           1 	(obj:0)
d21(4,68)                                           1 	(obj:0)
d21(4,69)                                           1 	(obj:0)
d21(4,70)                                           1 	(obj:0)
d21(4,71)                                           1 	(obj:0)
d21(4,73)                                           1 	(obj:0)
d21(4,76)                                           1 	(obj:0)
d21(4,77)                                           1 	(obj:0)
d21(4,79)                                           1 	(obj:0)
d21(4,80)                                           1 	(obj:0)
d21(4,82)                                           1 	(obj:0)
d21(4,85)                                           1 	(obj:0)
d21(4,86)                                           1 	(obj:0)
d21(4,94)                                           1 	(obj:0)
d21(4,95)                                           1 	(obj:0)
d21(4,97)                                           1 	(obj:0)
d21(4,98)                                           1 	(obj:0)
d21(4,103)                                          1 	(obj:0)
d21(4,104)                                          1 	(obj:0)
d21(4,106)                                          1 	(obj:0)
STE(1,1)                             14307.9664078582 	(obj:0)
STE(0,0)                                        15750 	(obj:0)
STE(1,2)                             15086.6704100001 	(obj:0)
STE(1,3)                             16127.5920438502 	(obj:0)
STE(2,4)                             10833.7482011915 	(obj:0)
STE(2,5)                             11830.5142045248 	(obj:0)
STE(2,6)                             13047.9664078582 	(obj:0)
STE(2,7)                             11612.4522033335 	(obj:0)
STE(2,8)                             12609.2182066667 	(obj:0)
STE(2,9)                             13826.6704100001 	(obj:0)
STE(2,10)                            12653.3738371835 	(obj:0)
STE(2,11)                            13650.1398405168 	(obj:0)
STE(2,12)                            14867.5920438502 	(obj:0)
STE(3,13)                            7359.52999452485 	(obj:0)
STE(3,14)                            8356.29599785815 	(obj:0)
STE(3,15)                            9573.74820119152 	(obj:0)
STE(3,16)                            8356.29599785814 	(obj:0)
STE(3,17)                            9353.06200119143 	(obj:0)
STE(3,18)                            10570.5142045248 	(obj:0)
STE(3,19)                            9573.74820119151 	(obj:0)
STE(3,20)                            10570.5142045248 	(obj:0)
STE(3,21)                            11787.9664078582 	(obj:0)
STE(3,22)                            8138.23399666679 	(obj:0)
STE(3,23)                            9135.00000000008 	(obj:0)
STE(3,24)                            10352.4522033335 	(obj:0)
STE(3,25)                            9135.00000000008 	(obj:0)
STE(3,26)                            10131.7660033334 	(obj:0)
STE(3,27)                            11349.2182066667 	(obj:0)
STE(3,28)                            10352.4522033334 	(obj:0)
STE(3,29)                            11349.2182066667 	(obj:0)
STE(3,30)                            12566.6704100001 	(obj:0)
STE(3,31)                            9179.15563051686 	(obj:0)
STE(3,32)                            10175.9216338501 	(obj:0)
STE(3,33)                            11393.3738371835 	(obj:0)
STE(3,34)                            10175.9216338501 	(obj:0)
STE(3,35)                            11172.6876371834 	(obj:0)
STE(3,36)                            12390.1398405168 	(obj:0)
STE(3,37)                            11393.3738371835 	(obj:0)
STE(3,38)                            12390.1398405168 	(obj:0)
STE(3,39)                            13607.5920438502 	(obj:0)
STE(4,40)                            3885.31178785811 	(obj:0)
STE(4,41)                             4882.0777911914 	(obj:0)
STE(4,42)                            6099.52999452486 	(obj:0)
STE(4,43)                             4882.0777911914 	(obj:0)
STE(4,44)                            5878.84379452469 	(obj:0)
STE(4,45)                            7096.29599785807 	(obj:0)
STE(4,46)                            6099.52999452478 	(obj:0)
STE(4,47)                            7096.29599785807 	(obj:0)
STE(4,48)                            8313.74820119152 	(obj:0)
STE(4,49)                             4882.0777911914 	(obj:0)
STE(4,50)                            5878.84379452469 	(obj:0)
STE(4,51)                            7096.29599785807 	(obj:0)
STE(4,52)                            5878.84379452469 	(obj:0)
STE(4,53)                            6875.60979785798 	(obj:0)
STE(4,54)                            8093.06200119136 	(obj:0)
STE(4,55)                            7096.29599785807 	(obj:0)
STE(4,56)                            8093.06200119136 	(obj:0)
STE(4,57)                            9310.51420452473 	(obj:0)
STE(4,58)                            6099.52999452476 	(obj:0)
STE(4,59)                            7096.29599785805 	(obj:0)
STE(4,60)                            8313.74820119143 	(obj:0)
STE(4,61)                            7096.29599785805 	(obj:0)
STE(4,62)                            8093.06200119134 	(obj:0)
STE(4,63)                             9310.5142045248 	(obj:0)
STE(4,64)                            8313.74820119143 	(obj:0)
STE(4,65)                            9310.51420452472 	(obj:0)
STE(4,66)                            10527.9664078581 	(obj:0)
STE(4,67)                            4664.01579000004 	(obj:0)
STE(4,68)                            5660.78179333333 	(obj:0)
STE(4,69)                            6878.23399666679 	(obj:0)
STE(4,70)                            5660.78179333333 	(obj:0)
STE(4,71)                            6657.54779666662 	(obj:0)
STE(4,72)                                        7875 	(obj:0)
STE(4,73)                            6878.23399666671 	(obj:0)
STE(4,74)                                        7875 	(obj:0)
STE(4,75)                            9092.45220333346 	(obj:0)
STE(4,76)                            5660.78179333333 	(obj:0)
STE(4,77)                            6657.54779666662 	(obj:0)
STE(4,78)                                        7875 	(obj:0)
STE(4,79)                            6657.54779666662 	(obj:0)
STE(4,80)                            7654.31379999991 	(obj:0)
STE(4,81)                            8871.76600333337 	(obj:0)
STE(4,82)                                        7875 	(obj:0)
STE(4,83)                            8871.76600333329 	(obj:0)
STE(4,84)                            10089.2182066667 	(obj:0)
STE(4,85)                             6878.2339966667 	(obj:0)
STE(4,86)                            7874.99999999999 	(obj:0)
STE(4,87)                            9092.45220333344 	(obj:0)
STE(4,88)                            7874.99999999999 	(obj:0)
STE(4,89)                            8871.76600333328 	(obj:0)
STE(4,90)                            10089.2182066667 	(obj:0)
STE(4,91)                            9092.45220333337 	(obj:0)
STE(4,92)                            10089.2182066667 	(obj:0)
STE(4,93)                                 11306.67041 	(obj:0)
STE(4,94)                            5704.93742385012 	(obj:0)
STE(4,95)                            6701.70342718341 	(obj:0)
STE(4,96)                            7919.15563051679 	(obj:0)
STE(4,97)                            6701.70342718337 	(obj:0)
STE(4,98)                            7698.46943051666 	(obj:0)
STE(4,99)                            8915.92163385004 	(obj:0)
STE(4,100)                           7919.15563051675 	(obj:0)
STE(4,101)                           8915.92163385004 	(obj:0)
STE(4,102)                           10133.3738371835 	(obj:0)
STE(4,103)                           6701.70342718337 	(obj:0)
STE(4,104)                           7698.46943051666 	(obj:0)
STE(4,105)                           8915.92163385012 	(obj:0)
STE(4,106)                           7698.46943051666 	(obj:0)
STE(4,107)                           8695.23543384995 	(obj:0)
STE(4,108)                           9912.68763718341 	(obj:0)
STE(4,109)                           8915.92163385004 	(obj:0)
STE(4,110)                           9912.68763718333 	(obj:0)
STE(4,111)                           11130.1398405167 	(obj:0)
STE(4,112)                           7919.15563051674 	(obj:0)
STE(4,113)                           8915.92163385003 	(obj:0)
STE(4,114)                           10133.3738371835 	(obj:0)
STE(4,115)                           8915.92163385003 	(obj:0)
STE(4,116)                           9912.68763718332 	(obj:0)
STE(4,117)                           11130.1398405168 	(obj:0)
STE(4,118)                           10133.3738371834 	(obj:0)
STE(4,119)                           11130.1398405167 	(obj:0)
STE(4,120)                           12347.5920438501 	(obj:0)
y1(4,100)                            1992.79638600007 	(obj:0)
y1(4,101)                            1095.70698300011 	(obj:0)
y1(4,103)                            1992.79638600007 	(obj:0)
y1(4,104)                            1095.70698300011 	(obj:0)
y1(4,106)                            1992.79638600007 	(obj:0)
y1(4,107)                            1095.70698300011 	(obj:0)
y1(4,109)                            1992.79638600007 	(obj:0)
y1(4,110)                            1095.70698300011 	(obj:0)
y1(4,112)                            1992.79638600007 	(obj:0)
y1(4,113)                            1095.70698300011 	(obj:0)
y1(4,115)                            1992.79638600007 	(obj:0)
y1(4,116)                            1095.70698300011 	(obj:0)
y1(4,118)                            1992.79638600007 	(obj:0)
y1(4,119)                            1095.70698300011 	(obj:0)
AVE(3)                                3399.3204933139 	(obj:0)
AVE(4)                               3353.21046544222 	(obj:0)
WG(3)                                3399.32049331398 	(obj:10)
WG(4)                                3353.21046544222 	(obj:10)
BG(1)                                2629.62635706898 	(obj:10)
BG(2)                                4495.91834999995 	(obj:10)
BG(3)                                1096.59785668601 	(obj:10)
BG(4)                                1142.70788455788 	(obj:10)
WB(1)                                3134.60043707458 	(obj:0)
AVE(1)                               3134.60043707458 	(obj:0)
WB(2)                                3326.45170866639 	(obj:0)
AVE(2)                               3326.45170866643 	(obj:0)
y1(1,1)                              163.830232927641 	(obj:0)
y1(2,4)                              1992.79638599999 	(obj:0)
y1(2,5)                              1095.70698300003 	(obj:0)
y1(2,7)                              1992.79638599999 	(obj:0)
y1(2,8)                              1095.70698300003 	(obj:0)
y1(2,10)                             1992.79638599999 	(obj:0)
y1(2,11)                             1095.70698300003 	(obj:0)
y1(3,13)                                  1992.796386 	(obj:0)
y1(3,14)                             1095.70698300004 	(obj:0)
y1(3,16)                                  1992.796386 	(obj:0)
y1(3,17)                             1095.70698300004 	(obj:0)
y1(3,19)                                  1992.796386 	(obj:0)
y1(3,20)                             1095.70698300004 	(obj:0)
y1(3,22)                                  1992.796386 	(obj:0)
y1(3,23)                             1095.70698300004 	(obj:0)
y1(3,25)                                  1992.796386 	(obj:0)
y1(3,26)                             1095.70698300004 	(obj:0)
y1(3,28)                                  1992.796386 	(obj:0)
y1(3,29)                             1095.70698300004 	(obj:0)
y1(3,31)                             1992.79638599997 	(obj:0)
y1(3,32)                             1095.70698300004 	(obj:0)
y1(3,34)                                  1992.796386 	(obj:0)
y1(3,35)                             1095.70698300004 	(obj:0)
y1(3,37)                                  1992.796386 	(obj:0)
y1(3,38)                             1095.70698300004 	(obj:0)
y1(4,40)                             1992.79638600007 	(obj:0)
y1(4,41)                             1095.70698300011 	(obj:0)
y1(4,43)                             1992.79638600007 	(obj:0)
y1(4,44)                             1095.70698300011 	(obj:0)
y1(4,46)                             1992.79638600007 	(obj:0)
y1(4,47)                             1095.70698300011 	(obj:0)
y1(4,49)                             1992.79638600007 	(obj:0)
y1(4,50)                             1095.70698300011 	(obj:0)
y1(4,52)                             1992.79638600007 	(obj:0)
y1(4,53)                             1095.70698300011 	(obj:0)
y1(4,55)                             1992.79638600007 	(obj:0)
y1(4,56)                             1095.70698300011 	(obj:0)
y1(4,58)                             1992.79638600007 	(obj:0)
y1(4,59)                             1095.70698300011 	(obj:0)
y1(4,61)                             1992.79638600007 	(obj:0)
y1(4,62)                             1095.70698300011 	(obj:0)
y1(4,64)                             1992.79638600007 	(obj:0)
y1(4,65)                             1095.70698300011 	(obj:0)
y1(4,67)                             1992.79638600007 	(obj:0)
y1(4,68)                             1095.70698300011 	(obj:0)
y1(4,70)                             1992.79638600007 	(obj:0)
y1(4,71)                             1095.70698300011 	(obj:0)
y1(4,73)                             1992.79638600007 	(obj:0)
y1(4,74)                             1095.70698300011 	(obj:0)
y1(4,76)                             1992.79638600007 	(obj:0)
y1(4,77)                             1095.70698300011 	(obj:0)
y1(4,79)                             1992.79638600007 	(obj:0)
y1(4,80)                             1095.70698300011 	(obj:0)
y1(4,82)                             1992.79638600007 	(obj:0)
y1(4,83)                             1095.70698300011 	(obj:0)
y1(4,85)                             1992.79638600007 	(obj:0)
y1(4,86)                             1095.70698300011 	(obj:0)
y1(4,88)                             1992.79638600007 	(obj:0)
y1(4,89)                             1095.70698300011 	(obj:0)
y1(4,91)                             1992.79638600007 	(obj:0)
y1(4,92)                             1095.70698300011 	(obj:0)
y1(4,94)                             1992.79638600007 	(obj:0)
y1(4,95)                             1095.70698300011 	(obj:0)
y1(4,97)                             1992.79638600007 	(obj:0)
y1(4,98)                             1095.70698300011 	(obj:0)
y2(1,2)                              628.074115789591 	(obj:0)
y2(1,3)                              1723.78109878963 	(obj:0)
